100
9 9
4 165
10 5
7 8
9 90
3 102
12 32
1 117
2 57
5 175
11 156
5 34
11 176
19 109
8 98
16 1
0 195
9 73
16 66
8 80
8 97
13 70
5 45
16 190
1 7
6 23
11 3
15 5
10 122
1 35
8 176
0 192
8 59
3 99
12 62
0 19
1 130
13 104
5 80
14 192
3 157
11 15
15 18
17 190
9 39
9 126
12 4
9 49
12 188
4 126
17 46
3 199
11 193
1 64
14 35
3 95
15 54
4 178
10 191
8 65
4 93
14 113
13 51
8 178
18 170
3 22
15 150
16 7
11 122
16 19
19 154
13 190
7 22
1 101
9 166
8 2
10 63
0 25
9 160
13 38
12 105
11 120
19 153
19 94
1 177
18 69
13 163
13 83
17 145
6 163
2 139
0 165
9 105
6 185
2 8
3 72
19 37
2 127
8 36
5 1